p cnf 21 105
1 2 3 0
1 2 3 4 0
1 2 3 4 0
1 2 4 0
1 3 4 0
2 3 4 0
5 6 7 0
5 6 7 8 0
5 6 7 9 0
5 6 8 0
5 6 9 0
5 6 8 9 0
5 7 8 0
5 7 9 0
5 7 8 9 0
5 8 9 0
6 7 8 0
6 7 9 0
6 7 8 9 0
6 8 9 0
7 8 9 0
5 6 7 8 0
5 6 7 9 0
5 6 7 8 9 0
5 6 8 9 0
5 7 8 9 0
6 7 8 9 0
10 11 12 13 0
14 15 16 0
17 18 19 0
-1 -5 -10 0
-1 -5 -10 0
-1 -5 -10 0
-1 -5 0
-1 -10 0
-5 -10 0
-2 -6 -11 -14 -17 0
-2 -6 -11 -14 -20 0
-2 -6 -11 -17 -20 0
-2 -6 -14 -17 -20 0
-2 -11 -14 -17 -20 0
-6 -11 -14 -17 -20 0
-3 -7 -12 -18 0
-3 -7 -12 0
-3 -7 -12 0
-3 -7 -12 -18 0
-3 -7 -12 -18 0
-3 -7 -12 0
-3 -7 -18 0
-3 -7 -18 0
-3 -7 0
-3 -7 -18 0
-3 -12 -18 0
-3 -12 -18 0
-3 -12 0
-3 -12 -18 0
-3 -18 0
-7 -12 -18 0
-7 -12 -18 0
-7 -12 0
-7 -12 -18 0
-7 -18 0
-12 -18 0
-8 -13 -15 -21 0
-8 -13 -15 0
-8 -13 -15 0
-8 -13 -15 -21 0
-8 -13 -15 -21 0
-8 -13 -15 0
-8 -13 -21 0
-8 -13 -21 0
-8 -13 0
-8 -13 -21 0
-8 -15 -21 0
-8 -15 -21 0
-8 -15 0
-8 -15 -21 0
-8 -21 0
-13 -15 -21 0
-13 -15 -21 0
-13 -15 0
-13 -15 -21 0
-13 -21 0
-15 -21 0
-4 -9 -16 -19 0
-4 -9 -16 -19 0
-4 -9 -16 -19 0
-4 -9 -16 0
-4 -9 -16 0
-4 -9 -16 0
-4 -9 -19 0
-4 -9 -19 0
-4 -9 -19 0
-4 -9 0
-4 -16 -19 0
-4 -16 -19 0
-4 -16 -19 0
-4 -16 0
-4 -19 0
-9 -16 -19 0
-9 -16 -19 0
-9 -16 -19 0
-9 -16 0
-9 -19 0
-16 -19 0
